# LAMMPS Force Field File
# Generated by ForceField.py

# FF References:
#      ODw: https://doi.org/10.1016/j.cplett.2005.10.135
#      HDw: https://doi.org/10.1016/j.cplett.2005.10.135
#      MDw: https://doi.org/10.1016/j.cplett.2005.10.135
#      polNa: https://doi.org/10.1016/j.jcis.2007.09.097.
#      polCl: https://aip.scitation.org/doi/pdf/10.1063/1.466363

fix drude all drude C N N C C D D D 
pair_style hybrid/overlay lj/cut/coul/long 12.0 thole 2.6 12.0
kspace_style pppm 1.0e-3

# Masses:
mass  1 15.200 # ODwC
mass  2 1.000 # HDw
mass  3 0.001 # MDw
mass  4 22.200 # polNaC
mass  5 34.200 # polClC
mass  6 0.800 # ODwD
mass  7 0.800 # polNaD
mass  8 0.800 # polClD

# Pair Potential Coefficients
pair_coeff  1  1 lj/cut/coul/long  0.21094  3.18395 # ODwC-ODwC
pair_coeff  1  2 lj/cut/coul/long  0.00000  1.59197 # ODwC-HDw
pair_coeff  1  3 lj/cut/coul/long  0.00000  1.59197 # ODwC-MDw
pair_coeff  1  4 lj/cut/coul/long  0.14524  3.02997 # ODwC-polNaC
pair_coeff  1  5 lj/cut/coul/long  0.14524  3.81698 # ODwC-polClC
pair_coeff  1  6 lj/cut/coul/long  0.00000  3.18395 # ODwC-ODwS
pair_coeff  1  7 lj/cut/coul/long  0.00000  3.81698 # ODwC-polClS
pair_coeff  1  8 lj/cut/coul/long  0.00000  3.02997 # ODwC-polNaS
pair_coeff  2  2 lj/cut/coul/long  0.00000  0.00000 # HDw-HDw
pair_coeff  2  3 lj/cut/coul/long  0.00000  0.00000 # HDw-MDw
pair_coeff  2  4 lj/cut/coul/long  0.00000  1.43800 # HDw-polNaC
pair_coeff  2  5 lj/cut/coul/long  0.00000  2.22500 # HDw-polClC
pair_coeff  2  6 lj/cut/coul/long  0.00000  1.59197 # HDw-ODwS
pair_coeff  2  7 lj/cut/coul/long  0.00000  2.22500 # HDw-polClS
pair_coeff  2  8 lj/cut/coul/long  0.00000  1.43800 # HDw-polNaS
pair_coeff  3  3 lj/cut/coul/long  0.00000  0.00000 # MDw-MDw
pair_coeff  3  4 lj/cut/coul/long  0.00000  1.43800 # MDw-polNaC
pair_coeff  3  5 lj/cut/coul/long  0.00000  2.22500 # MDw-polClC
pair_coeff  3  6 lj/cut/coul/long  0.00000  1.59197 # MDw-ODwS
pair_coeff  3  7 lj/cut/coul/long  0.00000  2.22500 # MDw-polClS
pair_coeff  3  8 lj/cut/coul/long  0.00000  1.43800 # MDw-polNaS
pair_coeff  4  4 lj/cut/coul/long  0.10000  2.87600 # polNaC-polNaC
pair_coeff  4  5 lj/cut/coul/long  0.10000  3.66300 # polNaC-polClC
pair_coeff  4  6 lj/cut/coul/long  0.00000  3.02997 # polNaC-ODwS
pair_coeff  4  7 lj/cut/coul/long  0.00000  3.66300 # polNaC-polClS
pair_coeff  4  8 lj/cut/coul/long  0.00000  2.87600 # polNaC-polNaS
pair_coeff  5  5 lj/cut/coul/long  0.10000  4.45000 # polClC-polClC
pair_coeff  5  6 lj/cut/coul/long  0.00000  3.81698 # polClC-ODwS
pair_coeff  5  7 lj/cut/coul/long  0.00000  4.45000 # polClC-polClS
pair_coeff  5  8 lj/cut/coul/long  0.00000  3.66300 # polClC-polNaS
pair_coeff  6  6 lj/cut/coul/long  0.00000  3.18395 # ODwS-ODwS
pair_coeff  6  7 lj/cut/coul/long  0.00000  3.81698 # ODwS-polClS
pair_coeff  6  8 lj/cut/coul/long  0.00000  3.02997 # ODwS-polNaS
pair_coeff  7  7 lj/cut/coul/long  0.00000  4.45000 # polClS-polClS
pair_coeff  7  8 lj/cut/coul/long  0.00000  3.66300 # polClS-polNaS
pair_coeff  8  8 lj/cut/coul/long  0.00000  2.87600 # polNaS-polNaS

# Thole Screening
pair_coeff  1  1 thole  0.97800 # ODwC-ODwC
pair_coeff  1  4 thole  0.49447 # ODwC-polNaC
pair_coeff  1  5 thole  1.78283 # ODwC-polClC
pair_coeff  1  6 thole  0.97800 # ODwC-ODwS
pair_coeff  1  7 thole  1.78283 # ODwC-polClS
pair_coeff  1  8 thole  0.49447 # ODwC-polNaS
pair_coeff  4  4 thole  0.25000 # polNaC-polNaC
pair_coeff  4  5 thole  0.90139 # polNaC-polClC
pair_coeff  4  6 thole  0.49447 # polNaC-ODwS
pair_coeff  4  7 thole  0.90139 # polNaC-polClS
pair_coeff  4  8 thole  0.25000 # polNaC-polNaS
pair_coeff  5  5 thole  3.25000 # polClC-polClC
pair_coeff  5  6 thole  1.78283 # polClC-ODwS
pair_coeff  5  7 thole  3.25000 # polClC-polClS
pair_coeff  5  8 thole  0.90139 # polClC-polNaS
pair_coeff  6  6 thole  0.97800 # ODwS-ODwS
pair_coeff  6  7 thole  1.78283 # ODwS-polClS
pair_coeff  6  8 thole  0.49447 # ODwS-polNaS
pair_coeff  7  7 thole  3.25000 # polClS-polClS
pair_coeff  7  8 thole  0.90139 # polClS-polNaS
pair_coeff  8  8 thole  0.25000 # polNaS-polNaS
