# LAMMPS Force Field File
# Generated by ForceField.py

# FF References:
#      OSPC: https://pubs.acs.org/doi/pdf/10.1021/j100308a038
#      HSPC: https://pubs.acs.org/doi/pdf/10.1021/j100308a038
#      Na: https://pubs.acs.org/doi/10.1021/jp980642x
#      Cl: https://pubs.acs.org/doi/10.1021/jp980642x

pair_style lj/cut/coul/long 12.0
kspace_style pppm 1.0e-3

# Masses:
mass  1 16.000 # OSPC
mass  2 1.000 # HSPC
mass  3 23.000 # Na
mass  4 35.000 # Cl

# Pair Potential Coefficients
pair_coeff  1  1   0.15530  3.16600 # OSPC-OSPC
pair_coeff  1  2   0.00000  1.58300 # OSPC-HSPC
pair_coeff  1  3   0.13914  3.02100 # OSPC-Na
pair_coeff  1  4   0.13914  3.47550 # OSPC-Cl
pair_coeff  2  2   0.00000  0.00000 # HSPC-HSPC
pair_coeff  2  3   0.00000  1.43800 # HSPC-Na
pair_coeff  2  4   0.00000  1.89250 # HSPC-Cl
pair_coeff  3  3   0.12466  2.87600 # Na-Na
pair_coeff  3  4   0.12466  3.33050 # Na-Cl
pair_coeff  4  4   0.12466  3.78500 # Cl-Cl

